Set parameter TokenServer to value "hpc-licenses.hpcc.usc.edu"
Set parameter TimeLimit to value 3600
Gurobi Optimizer version 9.5.1 build v9.5.1rc2 (linux64)
Thread count: 20 physical cores, 20 logical processors, using up to 20 threads
Optimize a model with 6007 rows, 4529 columns and 24534 nonzeros
Model fingerprint: 0x8fef021a
Variable types: 4506 continuous, 23 integer (23 binary)
Coefficient statistics:
  Matrix range     [1e+00, 1e+00]
  Objective range  [1e-03, 1e+00]
  Bounds range     [1e+00, 1e+00]
  RHS range        [1e+00, 2e+02]
Found heuristic solution: objective 255.9425783
Presolve removed 1520 rows and 1515 columns
Presolve time: 0.09s
Presolved: 4487 rows, 3014 columns, 21975 nonzeros
Variable types: 2994 continuous, 20 integer (20 binary)

Root relaxation: objective 2.752772e+02, 2777 iterations, 0.12 seconds (0.14 work units)

    Nodes    |    Current Node    |     Objective Bounds      |     Work
 Expl Unexpl |  Obj  Depth IntInf | Incumbent    BestBd   Gap | It/Node Time

     0     0  275.27722    0    2  255.94258  275.27722  7.55%     -    0s
H    0     0                     262.5854522  275.27722  4.83%     -    0s
     0     0  275.20561    0    2  262.58545  275.20561  4.81%     -    0s
     0     0  274.58713    0    2  262.58545  274.58713  4.57%     -    0s
H    0     0                     264.7276582  274.32927  3.63%     -    0s
     0     0  274.32927    0    3  264.72766  274.32927  3.63%     -    0s
     0     0  274.28258    0    4  264.72766  274.28258  3.61%     -    0s
     0     0  274.28252    0    2  264.72766  274.28252  3.61%     -    0s
     0     0  274.12617    0    4  264.72766  274.12617  3.55%     -    0s
     0     0  274.10880    0    2  264.72766  274.10880  3.54%     -    0s
     0     0  274.10415    0    2  264.72766  274.10415  3.54%     -    0s
     0     0  274.09768    0    4  264.72766  274.09768  3.54%     -    0s
     0     0  274.09192    0    2  264.72766  274.09192  3.54%     -    0s
     0     0  273.94340    0    2  264.72766  273.94340  3.48%     -    0s
     0     0  273.94340    0    2  264.72766  273.94340  3.48%     -    0s
     0     0  273.64886    0    4  264.72766  273.64886  3.37%     -    1s
     0     0  273.64886    0    4  264.72766  273.64886  3.37%     -    1s
H    0     0                     266.5329554  273.64886  2.67%     -    1s
     0     0  273.64886    0    4  266.53296  273.64886  2.67%     -    1s
     0     0  273.64886    0    2  266.53296  273.64886  2.67%     -    1s
     0     0  273.64886    0    2  266.53296  273.64886  2.67%     -    1s
     0     0  272.75949    0    6  266.53296  272.75949  2.34%     -    1s
H    0     0                     267.8730963  272.75949  1.82%     -    1s
     0     0  272.75645    0    6  267.87310  272.75645  1.82%     -    1s
     0     0  272.75645    0    2  267.87310  272.75645  1.82%     -    1s
H    0     0                     271.3451226  272.47611  0.42%     -    1s
     0     0  272.47611    0    6  271.34512  272.47611  0.42%     -    1s
     0     0  272.47611    0    7  271.34512  272.47611  0.42%     -    1s
     0     0  272.47611    0    2  271.34512  272.47611  0.42%     -    1s
     0     0  272.47450    0    4  271.34512  272.47450  0.42%     -    1s
     0     0  272.47450    0    7  271.34512  272.47450  0.42%     -    1s
     0     0  272.47450    0    4  271.34512  272.47450  0.42%     -    1s
     0     0  272.37796    0    5  271.34512  272.37796  0.38%     -    1s
     0     0  272.37796    0    2  271.34512  272.37796  0.38%     -    1s
     0     0  272.37796    0    2  271.34512  272.37796  0.38%     -    2s
     0     0  272.37796    0    2  271.34512  272.37796  0.38%     -    2s
     0     0  272.37796    0    2  271.34512  272.37796  0.38%     -    2s
     0     0  272.37796    0    2  271.34512  272.37796  0.38%     -    2s
     0     0  272.37796    0    2  271.34512  272.37796  0.38%     -    2s
     0     0  272.37796    0    2  271.34512  272.37796  0.38%     -    2s
     0     0  272.37796    0    2  271.34512  272.37796  0.38%     -    3s
     0     0  272.37796    0    3  271.34512  272.37796  0.38%     -    3s
     0     0  272.37796    0    2  271.34512  272.37796  0.38%     -    3s
     0     0  272.37796    0    2  271.34512  272.37796  0.38%     -    3s
     0     0  272.37796    0    5  271.34512  272.37796  0.38%     -    3s
     0     0  272.37796    0    4  271.34512  272.37796  0.38%     -    3s
     0     0  272.37796    0    2  271.34512  272.37796  0.38%     -    3s
     0     0  272.37796    0    6  271.34512  272.37796  0.38%     -    3s
     0     0  272.37796    0    5  271.34512  272.37796  0.38%     -    3s
     0     0  272.37796    0    6  271.34512  272.37796  0.38%     -    3s
     0     0  272.37796    0    5  271.34512  272.37796  0.38%     -    3s
     0     0  272.37796    0    5  271.34512  272.37796  0.38%     -    3s
     0     0  272.37796    0    5  271.34512  272.37796  0.38%     -    3s
     0     2  272.37796    0    5  271.34512  272.37796  0.38%     -    3s
*   16     2               8     271.6104513  271.97577  0.13%   169    4s
    17     2  271.93430    9    6  271.61045  271.93430  0.12%   164    5s

Cutting planes:
  MIR: 476
  Flow cover: 152
  RLT: 5
  Relax-and-lift: 9

Explored 25 nodes (11537 simplex iterations) in 5.18 seconds (3.27 work units)
Thread count was 20 (of 20 available processors)

Solution count 7: 271.61 271.345 267.873 ... 255.943

Optimal solution found (tolerance 1.00e-04)
Best objective 2.716104512526e+02, best bound 2.716244018931e+02, gap 0.0051%



#########node  1
V1.6
#########node  2
0.1071428571428569,0.8928571428571431
#########node  3
1.0000000000000002,0.0


Total Solving Time 5.59692907333374
obj value 271.610451252643
Policy Regret train (Sum) 7.333573780976075
Best Treatment Found train (%) 64.2
treatment classification acc train (%) 81.8
Policy Regret test (Sum) 28.73848887990478
Best Treatment Found test (%) 83.74000000000001
treatment classification acc test (%) 82.0
